--------------------------------------------------------------------------------(Solver execution current time: 0.00022220611572265625)
[INFO] Input Seed : 0
--------------------------------------------------------------------------------(Solver execution current time: 0.0002627372741699219)
[INFO] Input time limit : 30
--------------------------------------------------------------------------------(Solver execution current time: 0.0003342628479003906)
[INFO] Command line arguments read with no errors.
--------------------------------------------------------------------------------(Solver execution current time: 0.06857633590698242)
[INFO] Input file read with no errors.
--------------------------------------------------------------------------------(Solver execution current time: 0.06868457794189453)
[INFO] Starting solver.
--------------------------------------------------------------------------------(Solver execution current time: 0.0687413215637207)
[INFO] Starting construction
--------------------------------------------------------------------------------(Solver execution current time: 8.481825828552246)
[INFO] Finished construction
--------------------------------------------------------------------------------(Solver execution current time: 8.481918573379517)
[SOLUTION]
Basic Greedy Heuristic
Exec Time: 8.413087368011475
obj_value: -88; obj_routes: 32622.0
Route 1 : 80 180 44 69 22 144 6 1 14 81 78 122 106 181 95 16 116 195 49 178 73 169 173 114 79 149 101 179 97 197 67 71 48 167 148 171 74 174 
Route 2 : 51 68 62 30 46 168 146 92 59 192 91 159 52 191 58 152 66 162 158 166 82 57 151 20 85 130 120 157 182 185 76 60 72 13 113 176 56 156 40 160 172 140 
Route 3 : 3 103 88 188 17 37 137 117 10 110 83 96 70 84 196 34 134 53 153 184 183 170 32 132 54 154 
Route 4 : 77 75 175 177 19 119 100 200 18 118 47 29 129 147 87 187 36 136 
Route 5 : 23 123 9 109 99 199 42 43 63 142 163 143 89 189 11 111 26 126 
Route 6 : 41 12 27 112 141 127 65 165 39 139 45 145 90 190 35 38 135 138 
Route 7 : 64 55 164 155 
Route 8 : 86 186 
Route 9 : 4 98 198 104 
Route 10 : 15 21 28 128 115 121 
Route 11 : 
Route 12 : 
Route 13 : 
Route 14 : 
Route 15 : 
Route 16 : 
Route 17 : 
Route 18 : 
Route 19 : 
Route 20 : 
Route 21 : 

--------------------------------------------------------------------------------(Solver execution current time: 8.483129501342773)
[SOLUTION]
Solution after BasicGreedyLimitedHeterogeneousFleet
obj_value: -88; obj_routes: 32622.0
Route 1 : 80 180 44 69 22 144 6 1 14 81 78 122 106 181 95 16 116 195 49 178 73 169 173 114 79 149 101 179 97 197 67 71 48 167 148 171 74 174 
Route 2 : 51 68 62 30 46 168 146 92 59 192 91 159 52 191 58 152 66 162 158 166 82 57 151 20 85 130 120 157 182 185 76 60 72 13 113 176 56 156 40 160 172 140 
Route 3 : 3 103 88 188 17 37 137 117 10 110 83 96 70 84 196 34 134 53 153 184 183 170 32 132 54 154 
Route 4 : 77 75 175 177 19 119 100 200 18 118 47 29 129 147 87 187 36 136 
Route 5 : 23 123 9 109 99 199 42 43 63 142 163 143 89 189 11 111 26 126 
Route 6 : 41 12 27 112 141 127 65 165 39 139 45 145 90 190 35 38 135 138 
Route 7 : 64 55 164 155 
Route 8 : 86 186 
Route 9 : 4 98 198 104 
Route 10 : 15 21 28 128 115 121 
Route 11 : 
Route 12 : 
Route 13 : 
Route 14 : 
Route 15 : 
Route 16 : 
Route 17 : 
Route 18 : 
Route 19 : 
Route 20 : 
Route 21 : 

--------------------------------------------------------------------------------(Solver execution current time: 8.483372449874878)
[INFO] Starting metaheuristic
--------------------------------------------------------------------------------(Solver execution current time: 8.486007690429688)
[INFO] AGES EXCLUDED
--------------------------------------------------------------------------------(Solver execution current time: 8.489522933959961)
[INFO] Starting LNS
--------------------------------------------------------------------------------(Solver execution current time: 8.825393676757812)
[SOLUTION]
LNS
IT: 40
Exec Time: 0.3336780071258545
obj_value: -88; obj_routes: 32622.0
Route 1 : 80 180 44 69 22 144 6 1 14 81 78 122 106 181 95 16 116 195 49 178 73 169 173 114 79 149 101 179 97 197 67 71 48 167 148 171 74 174 
Route 2 : 51 68 62 30 46 168 146 92 59 192 91 159 52 191 58 152 66 162 158 166 82 57 151 20 85 130 120 157 182 185 76 60 72 13 113 176 56 156 40 160 172 140 
Route 3 : 3 103 88 188 17 37 137 117 10 110 83 96 70 84 196 34 134 53 153 184 183 170 32 132 54 154 
Route 4 : 77 75 175 177 19 119 100 200 18 118 47 29 129 147 87 187 36 136 
Route 5 : 23 123 9 109 99 199 42 43 63 142 163 143 89 189 11 111 26 126 
Route 6 : 41 12 27 112 141 127 65 165 39 139 45 145 90 190 35 38 135 138 
Route 7 : 64 55 164 155 
Route 8 : 86 186 
Route 9 : 4 98 198 104 
Route 10 : 15 21 28 128 115 121 
Route 11 : 
Route 12 : 
Route 13 : 
Route 14 : 
Route 15 : 
Route 16 : 
Route 17 : 
Route 18 : 
Route 19 : 
Route 20 : 
Route 21 : 

--------------------------------------------------------------------------------(Solver execution current time: 8.82731819152832)
[INFO] Starting PartitionMaxRequestsHF
--------------------------------------------------------------------------------(Solver execution current time: 8.923320055007935)
[SOLUTION]
PartitionMaxRequestsHF
Exec Time: 0.09594321250915527
obj_value: -88; obj_routes: 32622.0
Route 1 : 80 180 44 69 22 144 6 1 14 81 78 122 106 181 95 16 116 195 49 178 73 169 173 114 79 149 101 179 97 197 67 71 48 167 148 171 74 174 
Route 2 : 51 68 62 30 46 168 146 92 59 192 91 159 52 191 58 152 66 162 158 166 82 57 151 20 85 130 120 157 182 185 76 60 72 13 113 176 56 156 40 160 172 140 
Route 3 : 3 103 88 188 17 37 137 117 10 110 83 96 70 84 196 34 134 53 153 184 183 170 32 132 54 154 
Route 4 : 77 75 175 177 19 119 100 200 18 118 47 29 129 147 87 187 36 136 
Route 5 : 23 123 9 109 99 199 42 43 63 142 163 143 89 189 11 111 26 126 
Route 6 : 41 12 27 112 141 127 65 165 39 139 45 145 90 190 35 38 135 138 
Route 7 : 64 55 164 155 
Route 8 : 86 186 
Route 9 : 4 98 198 104 
Route 10 : 15 21 28 128 115 121 
Route 11 : 
Route 12 : 
Route 13 : 
Route 14 : 
Route 15 : 
Route 16 : 
Route 17 : 
Route 18 : 
Route 19 : 
Route 20 : 
Route 21 : 

--------------------------------------------------------------------------------(Solver execution current time: 8.925817966461182)
[INFO] Starting OriginalPerturbation
--------------------------------------------------------------------------------(Solver execution current time: 30.016446590423584)
[WARNING] Time Limit Exceeded
--------------------------------------------------------------------------------(Solver execution current time: 30.016554355621338)
[WARNING] Searching current best solution.
--------------------------------------------------------------------------------(Solver execution current time: 30.019388675689697)
[INFO] Algorithm execution time : 30.020199060440063
--------------------------------------------------------------------------------(Solver execution current time: 30.020739555358887)
[SOLUTION]
Final Solution Verification
====================================
Constraints verification: 
Homogenous Capacity Constraint OK
Time Windwos Constraint OK
Pickup and Delivery Constraint OK
Fixed Requests Constraint OK
Limited Fleet Constraint OK
Heterogeneous Fleet Constraint OK
====================================
Obj Func verification: 
SOLUTION COST OK
------------------------------------
ROUTES TOTAL COST OK
------------------------------------
REQUESTS TOTAL COST OK
------------------------------------
OBJECTIVE VALUE: -88
ROUTES VALUE: 32622.0
------------------------------------

Best Solution: 
obj_value: -88; obj_routes: 32622.0
Route 1 : 80 180 44 69 22 144 6 1 14 81 78 122 106 181 95 16 116 195 49 178 73 169 173 114 79 149 101 179 97 197 67 71 48 167 148 171 74 174 
Route 2 : 51 68 62 30 46 168 146 92 59 192 91 159 52 191 58 152 66 162 158 166 82 57 151 20 85 130 120 157 182 185 76 60 72 13 113 176 56 156 40 160 172 140 
Route 3 : 3 103 88 188 17 37 137 117 10 110 83 96 70 84 196 34 134 53 153 184 183 170 32 132 54 154 
Route 4 : 77 75 175 177 19 119 100 200 18 118 47 29 129 147 87 187 36 136 
Route 5 : 23 123 9 109 99 199 42 43 63 142 163 143 89 189 11 111 26 126 
Route 6 : 41 12 27 112 141 127 65 165 39 139 45 145 90 190 35 38 135 138 
Route 7 : 64 55 164 155 
Route 8 : 86 186 
Route 9 : 4 98 198 104 
Route 10 : 15 21 28 128 115 121 
Route 11 : 
Route 12 : 
Route 13 : 
Route 14 : 
Route 15 : 
Route 16 : 
Route 17 : 
Route 18 : 
Route 19 : 
Route 20 : 
Route 21 : 

--------------------------------------------------------------------------------